50
150
100
96
93
90
88
88
86
85
84
84
83
83
80
80
79
77
77
74
70
68
67
64
61
61
58
58
58
56
54
54
53
51
49
48
47
45
45
44
43
41
41
40
40
37
36
34
34
33
33
31
